% seed = 0

mint = 26;
% maxt = 125;

nActs = 62;
dur = [0,4,2,1,1,1,2,2,2,2,4,1,3,2,1,3,2,2,1,2,1,4,1,2,2,3,1,7,1,1,2,2,2,1,3,1,2,1,2,2,1,2,4,1,1,1,5,3,4,2,1,1,4,1,1,1,4,1,4,2,2,0];

nSkills = 15;
sreq = [| 0,0,0,0,0,0,0,0,0,0,0,0,0,0,0,
	| 0,0,0,0,0,0,1,0,1,0,0,0,0,0,1,
	| 0,0,1,0,0,0,0,1,0,0,1,0,0,1,0,
	| 0,0,1,0,0,0,0,1,1,0,0,0,1,0,1,
	| 0,0,0,0,0,1,0,0,0,1,0,2,0,2,1,
	| 0,0,2,0,0,1,0,1,1,0,1,0,0,0,1,
	| 0,0,0,0,0,0,0,1,1,1,0,1,0,0,0,
	| 0,0,0,0,0,0,1,1,1,0,0,1,0,2,0,
	| 0,1,0,0,0,1,1,1,0,0,0,0,0,0,1,
	| 0,1,0,0,0,0,0,0,0,0,1,0,0,0,1,
	| 0,1,1,0,0,0,0,0,0,0,0,1,0,0,0,
	| 0,0,0,0,0,0,1,2,1,0,0,0,0,0,0,
	| 0,1,0,0,0,1,0,2,1,0,0,1,1,0,0,
	| 0,0,0,0,0,1,0,0,0,1,0,0,0,0,0,
	| 0,0,1,0,0,0,1,1,0,0,0,0,0,0,0,
	| 0,0,0,0,1,0,0,0,1,1,0,1,1,0,1,
	| 0,1,0,1,0,0,0,2,0,1,0,1,0,1,0,
	| 0,1,0,0,0,0,0,1,1,1,0,1,1,0,1,
	| 0,0,1,0,0,0,0,0,0,0,0,0,0,2,0,
	| 0,0,1,0,0,0,0,1,0,0,1,1,0,1,0,
	| 0,0,1,0,0,0,1,1,0,0,1,0,1,0,2,
	| 0,1,2,0,0,0,0,0,0,0,1,0,2,0,0,
	| 0,0,2,1,0,0,0,0,0,0,0,0,1,2,1,
	| 0,0,0,0,1,0,0,0,1,0,0,0,0,0,0,
	| 0,0,0,1,0,0,0,1,0,0,0,0,1,0,1,
	| 0,0,0,0,0,0,0,0,0,0,0,0,0,0,1,
	| 0,0,1,0,0,1,0,2,0,1,1,0,0,0,1,
	| 0,0,0,0,1,0,0,0,1,0,1,0,0,0,0,
	| 0,0,0,0,0,0,0,1,0,0,1,1,1,1,1,
	| 0,0,1,1,0,0,0,1,0,0,0,2,0,1,1,
	| 0,0,0,0,0,0,0,0,0,0,0,0,0,1,0,
	| 1,0,0,0,0,0,0,0,1,0,0,1,0,1,1,
	| 0,1,0,0,0,0,0,1,0,0,2,0,0,2,0,
	| 0,0,1,0,0,1,0,0,1,0,0,0,0,1,0,
	| 0,0,0,0,0,1,0,0,1,0,1,1,0,1,2,
	| 0,0,2,0,0,0,0,1,0,0,0,1,1,0,0,
	| 0,0,0,0,0,0,0,0,0,0,0,2,0,0,0,
	| 0,0,1,0,0,0,0,0,0,0,1,0,0,1,1,
	| 0,1,1,0,0,1,2,0,0,0,0,0,1,0,1,
	| 0,0,1,0,0,1,0,1,1,1,0,0,0,0,1,
	| 0,0,0,0,0,0,0,0,0,0,0,0,0,1,0,
	| 0,0,2,0,0,0,0,0,2,0,0,0,0,0,0,
	| 0,0,2,0,0,0,1,0,1,1,1,0,1,0,0,
	| 0,0,1,0,0,0,0,3,1,0,0,1,0,1,0,
	| 0,0,1,0,0,0,0,0,1,0,0,1,0,1,0,
	| 0,0,1,0,0,0,0,1,2,0,0,1,0,1,0,
	| 0,0,0,0,0,0,0,0,0,0,0,1,0,0,0,
	| 0,0,0,1,0,0,0,0,1,0,0,1,0,2,1,
	| 0,0,0,0,1,0,0,0,1,1,0,0,1,1,1,
	| 0,0,0,0,0,0,0,0,1,0,0,0,1,0,0,
	| 0,0,2,0,0,1,0,0,0,0,0,0,2,1,0,
	| 0,0,1,0,0,0,0,0,0,0,0,0,0,0,1,
	| 0,2,0,0,1,0,0,0,0,0,0,1,0,2,1,
	| 0,1,0,0,1,0,0,1,0,0,0,0,1,0,0,
	| 0,0,0,0,0,1,0,1,0,0,0,0,0,0,0,
	| 0,0,0,0,0,1,0,0,0,0,1,0,1,1,2,
	| 0,0,0,0,0,0,0,1,0,1,0,0,2,1,1,
	| 0,0,0,0,0,1,0,0,0,0,0,0,0,0,0,
	| 0,0,0,0,0,0,1,0,0,0,0,1,0,0,1,
	| 0,0,1,0,0,0,2,0,0,1,0,1,0,2,0,
	| 0,0,0,0,0,0,1,0,1,0,0,0,0,1,1,
	| 0,0,0,0,0,0,0,0,0,0,0,0,0,0,0, |];

% SumOfsreq = 280;

nResources = 23;
mastery = [| false,false,false,false,false,false,true,true,true,false,false,false,false,false,false,
	| false,false,false,false,false,false,false,false,false,false,false,false,true,true,true,
	| false,false,false,false,false,false,true,true,true,false,false,false,false,false,false,
	| false,false,false,false,false,false,false,false,false,false,false,false,false,false,true,
	| true,true,true,false,false,false,false,false,false,false,false,false,true,true,true,
	| false,false,false,false,false,false,true,true,true,false,false,false,false,false,false,
	| false,false,false,false,false,false,false,false,true,false,false,false,false,true,true,
	| false,false,false,false,false,false,false,false,false,true,true,true,false,false,false,
	| false,false,false,false,false,false,false,false,false,false,false,true,false,false,false,
	| false,false,true,false,false,false,false,false,false,false,false,false,false,false,false,
	| false,false,false,false,false,false,false,true,true,false,false,false,true,true,true,
	| false,false,false,false,false,false,false,true,true,false,false,false,false,false,false,
	| false,false,false,false,false,true,false,false,false,false,false,false,false,false,false,
	| false,false,false,false,false,false,false,false,false,true,true,true,false,false,false,
	| false,false,false,true,true,true,true,true,true,false,false,false,false,false,false,
	| false,false,false,false,false,false,false,false,false,false,false,false,true,true,true,
	| false,false,false,true,true,true,false,false,false,false,false,false,false,false,false,
	| false,true,true,false,false,false,false,false,false,false,false,false,false,false,false,
	| false,false,false,false,false,false,false,false,false,false,true,true,false,false,false,
	| false,true,true,false,false,false,false,false,false,false,false,false,false,false,false,
	| false,false,true,false,false,false,false,false,false,false,false,true,false,true,true,
	| false,false,false,false,false,false,false,false,false,false,false,false,false,false,true,
	| false,false,false,false,false,false,true,true,true,false,false,false,false,false,false, |];

nPrecs = 93;
pred = [1,1,1,2,2,2,3,4,4,4,5,5,6,6,6,7,7,7,8,8,8,9,9,9,10,11,12,12,13,13,14,14,14,15,15,16,16,16,17,17,18,19,20,21,21,22,23,24,25,26,27,27,28,29,30,31,32,33,34,35,35,36,37,38,39,40,40,41,41,42,43,43,44,45,46,46,47,48,49,50,51,52,53,54,54,55,55,56,57,58,59,60,61];
succ = [2,3,4,10,6,46,25,13,5,16,12,7,17,11,8,9,36,47,45,30,39,25,26,44,33,22,14,15,20,31,19,52,56,41,24,18,35,23,21,22,51,32,53,32,24,29,28,38,27,30,34,59,49,55,40,37,47,42,56,50,39,41,43,54,52,50,58,43,55,59,50,61,48,60,59,48,53,52,53,57,54,58,57,58,60,61,56,57,60,61,62,62,62];

nUnrels = 1321;
unpred = [2,2,2,2,2,2,2,2,2,2,2,2,2,2,2,2,2,2,2,2,2,2,2,2,2,2,2,2,3,3,3,3,3,3,3,3,3,3,3,3,3,3,3,3,3,3,3,3,3,3,3,3,3,3,3,3,3,3,3,3,3,3,3,3,3,3,3,3,3,3,3,3,3,3,3,3,3,3,3,4,4,4,4,4,4,4,4,4,4,4,4,5,5,5,5,5,5,5,5,5,5,5,5,5,5,5,5,5,5,5,5,5,5,5,5,6,6,6,6,6,6,6,6,6,6,6,6,6,6,6,6,6,6,6,6,6,6,6,6,6,6,6,6,6,6,6,7,7,7,7,7,7,7,7,7,7,7,7,7,7,7,7,7,7,7,7,7,7,7,7,7,7,7,7,7,7,7,8,8,8,8,8,8,8,8,8,8,8,8,8,8,8,8,8,8,8,8,8,8,8,8,8,8,8,8,8,8,8,8,8,8,8,8,8,8,8,8,8,8,8,9,9,9,9,9,9,9,9,9,9,9,9,9,9,9,9,9,9,9,9,9,9,9,9,9,9,9,9,9,9,9,9,9,9,9,9,10,10,10,10,10,10,10,10,10,10,10,10,10,10,10,10,10,10,10,10,10,10,10,10,10,10,10,10,10,10,10,10,10,10,10,10,10,10,10,10,10,10,10,10,10,10,10,10,11,11,11,11,11,11,11,11,11,11,11,11,11,11,11,11,11,11,11,11,11,11,11,11,11,11,11,11,11,11,11,11,11,11,11,11,11,11,11,11,11,11,11,12,12,12,12,12,12,12,12,12,12,12,12,12,12,12,12,12,12,12,12,12,12,12,12,12,12,12,12,12,12,13,13,13,13,13,13,13,13,13,13,13,13,13,13,13,13,13,13,13,13,13,13,13,13,13,13,13,13,13,13,13,13,13,13,13,13,13,13,13,14,14,14,14,14,14,14,14,14,14,14,14,14,14,14,14,14,14,14,14,14,14,14,14,14,14,14,14,14,14,14,14,14,14,14,14,14,15,15,15,15,15,15,15,15,15,15,15,15,15,15,15,15,15,15,15,15,15,15,15,15,15,15,15,15,15,15,15,15,15,15,16,16,16,16,16,16,16,16,16,16,16,16,16,16,16,16,16,16,16,16,16,16,16,16,16,16,16,16,16,16,17,17,17,17,17,17,17,17,17,17,17,17,17,17,17,17,17,17,17,17,17,17,17,17,17,17,17,17,17,18,18,18,18,18,18,18,18,18,18,18,18,18,18,18,18,18,18,18,18,18,18,18,18,18,18,18,18,18,18,18,18,18,18,18,18,18,18,19,19,19,19,19,19,19,19,19,19,19,19,19,19,19,19,19,19,19,19,19,19,19,19,19,19,19,19,19,19,19,19,19,19,19,19,19,20,20,20,20,20,20,20,20,20,20,20,20,20,20,20,20,20,20,20,20,20,20,20,20,20,20,20,20,20,20,20,20,20,20,20,20,20,20,21,21,21,21,21,21,21,21,21,21,21,21,21,21,21,21,21,21,21,21,21,21,21,21,21,21,21,21,21,21,22,22,22,22,22,22,22,22,22,22,22,22,22,22,22,22,22,22,22,22,22,22,22,22,22,22,22,22,22,22,22,22,22,23,23,23,23,23,23,23,23,23,23,23,23,23,23,23,23,23,23,23,23,23,23,23,23,23,23,23,23,23,23,23,23,23,24,24,24,24,24,24,24,24,24,24,24,24,24,24,24,24,24,24,24,24,24,24,24,24,24,24,24,24,24,24,24,24,25,25,25,25,25,25,25,25,25,25,25,25,25,25,25,25,25,25,25,25,25,25,25,25,25,25,25,25,25,25,26,26,26,26,26,26,26,26,26,26,26,26,26,26,26,26,26,26,26,26,26,26,26,26,26,26,26,26,27,27,27,27,27,27,27,27,27,27,27,27,27,27,27,27,27,27,27,27,27,27,27,27,27,27,27,27,27,28,28,28,28,28,28,28,28,28,28,28,28,28,28,28,28,28,28,28,28,28,28,28,28,28,28,28,28,28,29,29,29,29,29,29,29,29,29,29,29,29,29,29,29,29,29,29,29,29,29,29,29,29,29,29,29,30,30,30,30,30,30,30,30,30,30,30,30,30,30,30,30,30,30,30,30,30,30,30,30,30,31,31,31,31,31,31,31,31,31,31,31,31,31,31,31,31,31,31,31,31,31,31,31,31,32,32,32,32,32,32,32,32,32,32,32,32,32,32,32,32,32,32,32,32,32,32,32,32,32,33,33,33,33,33,33,33,33,33,33,33,33,33,33,33,33,33,33,33,33,33,33,33,33,33,33,34,34,34,34,34,34,34,34,34,34,34,34,34,34,34,34,34,34,34,34,34,34,34,34,35,35,35,35,35,35,35,35,35,35,35,35,35,35,35,35,35,35,35,36,36,36,36,36,36,36,36,36,36,36,36,36,36,36,36,36,37,37,37,37,37,37,37,37,37,37,37,37,37,37,37,37,37,37,37,38,38,38,38,38,38,38,38,38,38,38,38,38,38,38,38,38,38,38,39,39,39,39,39,39,39,39,39,39,39,39,39,39,39,39,39,39,39,40,40,40,40,40,40,40,40,40,40,40,40,40,40,40,40,41,41,41,41,41,41,41,41,41,41,41,41,41,42,42,42,42,42,42,42,42,42,42,42,42,42,42,42,42,42,42,43,43,43,43,43,43,43,43,43,43,43,43,43,43,44,44,44,44,44,44,44,44,44,44,44,44,44,45,45,45,45,45,45,45,45,45,45,45,45,45,45,45,46,46,46,46,46,46,46,46,46,46,47,47,47,47,47,47,47,47,47,47,47,48,48,48,48,48,48,48,48,48,48,49,49,49,49,49,49,49,49,49,50,50,50,50,50,50,50,50,50,51,51,51,51,51,51,52,52,52,52,52,52,52,53,53,53,53,53,53,54,54,54,54,55,55,56,56,56,57,57,57,58,58,59,59,60];
unsucc = [3,4,5,7,9,12,13,14,15,16,18,19,20,23,25,26,27,28,31,34,35,36,37,41,43,44,49,51,4,5,6,7,8,9,10,11,12,13,14,15,16,17,18,19,20,21,22,23,24,26,28,29,30,31,32,33,35,36,37,38,39,40,41,42,43,44,45,46,47,48,49,50,51,52,53,54,55,58,61,6,8,10,11,17,21,22,29,33,42,45,46,6,8,10,11,13,16,17,18,20,21,22,23,28,29,31,33,35,37,39,42,45,46,49,51,7,9,10,12,13,14,15,16,18,19,20,23,25,26,27,28,31,33,34,35,36,37,41,42,43,44,46,48,49,51,59,8,10,11,12,13,14,15,16,17,18,19,20,21,22,23,24,28,29,31,32,33,35,37,38,39,42,45,46,49,51,54,9,10,11,12,13,14,15,16,17,18,19,20,21,22,23,24,25,26,27,28,29,31,32,33,34,35,36,37,38,41,42,43,44,46,47,48,49,51,53,54,55,56,59,10,11,12,13,14,15,16,17,18,19,20,21,22,23,24,28,29,31,32,33,35,36,37,38,39,41,42,43,45,46,47,49,51,53,54,55,11,12,13,14,15,16,17,18,19,20,21,22,23,24,25,26,27,28,29,30,31,32,34,35,36,37,38,39,40,41,43,44,45,46,47,48,49,50,51,52,53,54,55,56,57,58,60,61,12,13,14,15,16,17,18,19,20,21,23,24,25,26,27,28,30,31,32,33,34,35,36,37,38,39,40,41,42,43,44,45,46,47,48,49,50,51,52,53,54,58,59,13,16,17,18,20,21,22,23,25,26,27,28,29,30,31,33,34,35,36,37,39,40,42,44,45,46,48,49,51,59,14,15,16,17,18,19,21,22,23,24,25,26,27,28,29,30,32,33,34,35,36,38,39,40,41,42,44,45,46,47,48,49,51,52,54,55,56,58,59,15,16,17,18,20,21,22,23,24,25,26,27,28,29,30,31,33,34,35,36,37,38,39,40,41,42,43,44,45,46,48,49,50,51,54,55,59,16,17,18,19,20,21,22,23,25,26,27,28,29,30,31,32,33,34,35,36,37,39,40,42,44,45,46,47,48,49,51,52,53,59,17,19,20,21,22,24,25,26,27,29,30,31,32,33,34,36,37,38,40,41,42,43,44,45,46,47,48,55,56,59,18,19,20,23,25,26,27,28,30,31,33,34,35,36,37,39,40,41,42,43,44,45,46,48,49,50,51,52,59,19,20,21,22,23,24,25,26,27,28,29,30,31,32,33,34,35,36,37,38,39,40,41,42,43,44,45,46,47,48,49,50,52,53,55,56,57,59,20,21,22,23,24,25,26,27,28,29,30,31,33,34,35,36,37,38,39,40,41,42,43,44,45,46,48,49,50,51,52,54,55,56,58,59,61,21,22,23,24,25,26,27,28,29,30,31,32,33,34,35,36,37,38,39,40,41,42,43,44,45,46,47,48,49,50,51,52,54,55,56,58,59,61,22,23,25,26,27,28,29,30,31,33,34,35,36,37,39,40,41,42,43,44,45,46,48,49,50,51,52,55,56,59,23,24,25,26,27,28,30,31,32,33,34,35,36,37,38,39,40,41,42,43,44,45,46,47,48,49,50,51,52,53,54,58,59,24,25,26,27,29,30,31,32,33,34,35,36,37,38,39,40,41,42,43,44,45,46,47,48,50,51,52,54,55,56,58,59,61,25,26,27,28,29,30,31,32,33,34,35,36,37,39,40,41,42,43,44,45,46,47,48,49,50,51,52,53,55,56,57,59,26,28,29,30,31,32,33,35,36,37,38,39,40,41,42,43,44,45,46,47,48,49,50,51,52,53,54,55,58,61,27,28,29,31,32,33,34,35,36,37,38,39,41,42,43,44,45,46,47,48,49,51,52,53,54,55,56,59,28,29,30,31,32,33,35,36,37,38,39,40,41,42,43,44,45,46,47,48,49,50,51,52,53,54,55,58,61,29,30,31,32,33,34,35,36,37,38,39,40,41,42,43,44,45,46,47,48,50,51,52,54,55,56,58,59,61,30,31,32,33,34,35,36,37,38,39,40,41,42,43,44,45,46,47,48,49,50,51,52,53,54,58,59,31,32,33,34,35,36,37,38,39,41,42,43,44,45,46,47,48,49,51,52,53,54,55,56,59,32,33,34,35,36,38,39,40,41,42,44,45,46,47,48,49,51,52,53,54,55,56,58,59,33,34,35,36,37,38,39,40,41,42,43,44,45,46,48,49,50,51,52,54,55,56,58,59,61,34,35,36,37,38,39,40,41,43,44,45,46,47,48,49,50,51,52,53,54,55,56,57,58,60,61,35,36,37,38,39,40,41,42,43,44,45,46,47,48,49,50,51,52,53,54,55,58,59,61,36,37,38,40,41,42,43,44,45,46,47,48,49,51,53,54,55,56,59,37,38,39,40,42,44,45,46,47,48,49,51,52,53,54,58,59,38,39,40,41,42,44,45,46,47,48,49,51,52,53,54,55,56,58,59,39,40,41,42,43,44,45,46,47,48,49,50,51,52,53,55,56,57,59,40,41,42,43,44,45,46,47,48,49,50,51,53,54,55,56,57,59,60,41,42,43,44,45,46,47,48,49,51,52,53,54,55,56,59,42,44,45,46,47,48,49,51,52,53,54,58,59,43,44,45,46,47,48,49,50,51,52,53,54,55,56,57,58,60,61,44,45,46,47,48,49,51,52,53,54,55,56,58,59,45,46,47,49,50,51,53,54,55,56,57,59,60,46,47,48,49,50,51,52,53,54,55,56,57,58,59,61,47,49,50,51,53,54,55,56,57,60,48,49,50,51,52,54,55,56,58,59,61,49,50,51,53,54,55,56,57,59,60,50,51,52,54,55,56,58,59,61,51,52,53,54,55,56,58,59,61,52,53,55,56,57,59,53,54,55,56,57,59,60,54,55,56,58,59,61,55,56,57,59,58,59,58,59,61,58,59,61,59,60,60,61,61];

USEFUL_RES = [{},
	{1,2,3,4,5,6,7,11,12,15,16,21,22,23},
	{1,2,3,5,6,7,8,10,11,12,14,15,16,18,19,20,21,23},
	{1,2,3,4,5,6,7,10,11,12,15,16,18,20,21,22,23},
	{2,4,5,7,8,9,11,13,14,15,16,17,19,21,22},
	{1,2,3,4,5,6,7,8,10,11,12,13,14,15,16,17,18,19,20,21,22,23},
	{1,3,6,7,8,9,11,12,14,15,19,21,23},
	{1,2,3,5,6,7,8,9,11,12,14,15,16,19,21,23},
	{1,2,3,4,5,6,7,11,12,13,15,16,17,18,20,21,22,23},
	{2,4,5,7,8,11,14,16,18,19,20,21,22},
	{5,8,9,10,14,18,19,20,21},
	{1,3,6,7,11,12,15,23},
	{1,2,3,5,6,7,8,9,11,12,13,14,15,16,17,18,19,20,21,23},
	{8,13,14,15,17},
	{1,3,5,6,10,11,12,15,18,20,21,23},
	{1,2,3,4,5,6,7,8,9,11,12,14,15,16,17,19,21,22,23},
	{1,2,3,5,6,7,8,9,11,12,14,15,16,17,18,19,20,21,23},
	{1,2,3,4,5,6,7,8,9,11,12,14,15,16,18,19,20,21,22,23},
	{2,5,7,10,11,16,18,20,21},
	{1,2,3,5,6,7,8,9,10,11,12,14,15,16,18,19,20,21,23},
	{1,2,3,4,5,6,7,8,10,11,12,14,15,16,18,19,20,21,22,23},
	{2,5,8,10,11,14,16,18,19,20,21},
	{2,4,5,7,10,11,15,16,17,18,20,21,22},
	{1,3,6,7,11,12,15,17,23},
	{1,2,3,4,5,6,7,11,12,15,16,17,21,22,23},
	{2,4,5,7,11,16,21,22},
	{1,2,3,4,5,6,7,8,10,11,12,13,14,15,16,17,18,19,20,21,22,23},
	{1,3,6,7,8,11,12,14,15,17,19,23},
	{1,2,3,4,5,6,7,8,9,11,12,14,15,16,19,21,22,23},
	{1,2,3,4,5,6,7,8,9,10,11,12,14,15,16,17,18,19,20,21,22,23},
	{2,5,7,11,16,21},
	{1,2,3,4,5,6,7,8,9,11,12,14,15,16,19,21,22,23},
	{1,2,3,5,6,7,8,11,12,14,15,16,18,19,20,21,23},
	{1,2,3,5,6,7,10,11,12,13,15,16,17,18,20,21,23},
	{1,2,3,4,5,6,7,8,9,11,12,13,14,15,16,17,19,21,22,23},
	{1,2,3,5,6,8,9,10,11,12,14,15,16,18,19,20,21,23},
	{8,9,14,19,21},
	{2,4,5,7,8,10,11,14,16,18,19,20,21,22},
	{1,2,3,4,5,6,7,10,11,13,15,16,17,18,20,21,22,23},
	{1,2,3,4,5,6,7,8,10,11,12,13,14,15,16,17,18,20,21,22,23},
	{2,5,7,11,16,21},
	{1,3,5,6,7,10,11,12,15,18,20,21,23},
	{1,2,3,5,6,7,8,10,11,12,14,15,16,18,19,20,21,23},
	{1,2,3,5,6,7,8,9,10,11,12,14,15,16,18,19,20,21,23},
	{1,2,3,5,6,7,8,9,10,11,12,14,15,16,18,19,20,21,23},
	{1,2,3,5,6,7,8,9,10,11,12,14,15,16,18,19,20,21,23},
	{8,9,14,19,21},
	{1,2,3,4,5,6,7,8,9,11,12,14,15,16,17,19,21,22,23},
	{1,2,3,4,5,6,7,8,11,12,14,15,16,17,21,22,23},
	{1,2,3,5,6,7,11,12,15,16,23},
	{2,5,7,10,11,13,15,16,17,18,20,21},
	{2,4,5,7,10,11,16,18,20,21,22},
	{2,4,5,7,8,9,11,14,15,16,17,18,19,20,21,22},
	{1,2,3,5,6,11,12,15,16,17,18,20,23},
	{1,3,6,11,12,13,15,17,23},
	{2,4,5,7,8,11,13,14,15,16,17,19,21,22},
	{1,2,3,4,5,6,7,8,11,12,14,15,16,21,22,23},
	{13,15,17},
	{1,2,3,4,5,6,7,8,9,11,14,15,16,19,21,22,23},
	{1,2,3,5,6,7,8,9,10,11,14,15,16,18,19,20,21,23},
	{1,2,3,4,5,6,7,11,12,15,16,21,22,23},
	{}];

POTENTIAL_ACT = [{2,3,4,6,7,8,9,12,13,15,16,17,18,20,21,24,25,27,28,29,30,32,33,34,35,36,39,40,42,43,44,45,46,48,49,50,54,55,57,59,60,61},
	{2,3,4,5,6,8,9,10,13,16,17,18,19,20,21,22,23,25,26,27,29,30,31,32,33,34,35,36,38,39,40,41,43,44,45,46,48,49,50,51,52,53,54,56,57,59,60,61},
	{2,3,4,6,7,8,9,12,13,15,16,17,18,20,21,24,25,27,28,29,30,32,33,34,35,36,39,40,42,43,44,45,46,48,49,50,54,55,57,59,60,61},
	{2,4,5,6,9,10,16,18,21,23,25,26,27,29,30,32,35,38,39,40,48,49,52,53,56,57,59,61},
	{2,3,4,5,6,8,9,10,11,13,15,16,17,18,19,20,21,22,23,25,26,27,29,30,31,32,33,34,35,36,38,39,40,41,42,43,44,45,46,48,49,50,51,52,53,54,56,57,59,60,61},
	{2,3,4,6,7,8,9,12,13,15,16,17,18,20,21,24,25,27,28,29,30,32,33,34,35,36,39,40,42,43,44,45,46,48,49,50,54,55,57,59,60,61},
	{2,3,4,5,6,7,8,9,10,12,13,16,17,18,19,20,21,23,24,25,26,27,28,29,30,31,32,33,34,35,38,39,40,41,42,43,44,45,46,48,49,50,51,52,53,56,57,59,60,61},
	{3,5,6,7,8,10,11,13,14,16,17,18,20,21,22,27,28,29,30,32,33,35,36,37,38,40,43,44,45,46,47,48,49,53,56,57,59,60},
	{5,7,8,11,13,16,17,18,20,29,30,32,35,36,37,44,45,46,47,48,53,59,60},
	{3,4,6,11,15,19,20,21,22,23,27,30,34,36,38,39,40,42,43,44,45,46,51,52,60},
	{2,3,4,5,6,7,8,9,10,12,13,15,16,17,18,19,20,21,22,23,24,25,26,27,28,29,30,31,32,33,34,35,36,38,39,40,41,42,43,44,45,46,48,49,50,51,52,53,54,55,56,57,59,60,61},
	{2,3,4,6,7,8,9,12,13,15,16,17,18,20,21,24,25,27,28,29,30,32,33,34,35,36,40,42,43,44,45,46,48,49,50,54,55,57,61},
	{5,6,9,13,14,27,34,35,39,40,51,55,56,58},
	{3,5,6,7,8,10,11,13,14,16,17,18,20,21,22,27,28,29,30,32,33,35,36,37,38,40,43,44,45,46,47,48,49,53,56,57,59,60},
	{2,3,4,5,6,7,8,9,12,13,14,15,16,17,18,20,21,23,24,25,27,28,29,30,32,33,34,35,36,39,40,42,43,44,45,46,48,49,50,51,53,54,55,56,57,58,59,60,61},
	{2,3,4,5,6,8,9,10,13,16,17,18,19,20,21,22,23,25,26,27,29,30,31,32,33,34,35,36,38,39,40,41,43,44,45,46,48,49,50,51,52,53,54,56,57,59,60,61},
	{5,6,9,13,14,16,17,23,24,25,27,28,30,34,35,39,40,48,49,51,53,54,55,56,58},
	{3,4,6,9,10,11,13,15,17,18,19,20,21,22,23,27,30,33,34,36,38,39,40,42,43,44,45,46,51,52,53,54,60},
	{3,5,6,7,8,10,11,13,16,17,18,20,21,22,27,28,29,30,32,33,35,36,37,38,43,44,45,46,47,48,53,56,59,60},
	{3,4,6,9,10,11,13,15,17,18,19,20,21,22,23,27,30,33,34,36,38,39,40,42,43,44,45,46,51,52,53,54,60},
	{2,3,4,5,6,7,8,9,10,11,13,15,16,17,18,19,20,21,22,23,25,26,27,29,30,31,32,33,34,35,36,37,38,39,40,41,42,43,44,45,46,47,48,49,51,52,53,56,57,59,60,61},
	{2,4,5,6,9,10,16,18,21,23,25,26,27,29,30,32,35,38,39,40,48,49,52,53,56,57,59,61},
	{2,3,4,6,7,8,9,12,13,15,16,17,18,20,21,24,25,27,28,29,30,32,33,34,35,36,39,40,42,43,44,45,46,48,49,50,54,55,57,59,60,61}];
